c max 145  146  151  152  153  154  155  156  185  186  187  196  197  198  199  200  201  202  203  204  208  209  213  214 0
c ind 579  580  583  584  587  588  591  592  595  596  599  600  603  604  607  608  611  614  615  616  619  620  623  624  627  628  631  632  635  636  639  640  643  644  647  648  651  652  654  655  656 0
c This is a CNF SAT formula in the DIMACS CNF format,
c produced with the bc2cnf translator by Tommi Junttila;
c see http://users.ics.aalto.fi/tjunttil/circuits/index.html
c phi_Gamma_det <-> 1
c phi_Gamma <-> 1
c phi_T_feature_det <-> 1
c phi_T_transitions <-> 1
c phi_T_transitions_consistency <-> 1
c phi_T <-> 1
c phi_sim_leaves <-> 1
c phi_sim_transition <-> 1
c phi_sim <-> 1
c FORMULA <-> 1
c pi_1 <-> 2
c pi_0 <-> 85
c tau_1_3_approved_1 <-> 145
c tau_1_3_approved_0 <-> 146
c tau_1_2_approved_1 <-> 151
c tau_1_2_approved_0 <-> 152
c tau_1_1_approved_1 <-> 153
c tau_1_1_approved_0 <-> 154
c tau_1_0_approved_1 <-> 155
c tau_1_0_approved_0 <-> 156
c tau_0_3_approved_1 <-> 185
c tau_0_3_approved_0 <-> 186
c tau_0_3_1 <-> 187
c tau_0_2_approved_1 <-> 196
c tau_0_2_approved_0 <-> 197
c tau_0_2_1 <-> 198
c tau_0_1_approved_1 <-> 199
c tau_0_1_approved_0 <-> 200
c tau_0_1_1 <-> 201
c tau_0_0_approved_1 <-> 202
c tau_0_0_approved_0 <-> 203
c tau_0_0_1 <-> 204
c lam_1_monthly_income <-> 208
c lam_1_age <-> 209
c lam_0_monthly_income <-> 213
c lam_0_age <-> 214
c phi_Gamma_val <-> 577
c monthly_income_P204000 <-> 579
c age_P7600 <-> 580
c monthly_income_P505500 <-> 583
c age_P3600 <-> 584
c monthly_income_P205500 <-> 587
c age_P6500 <-> 588
c monthly_income_P992200 <-> 591
c age_P7700 <-> 592
c monthly_income_P354400 <-> 595
c age_P5000 <-> 596
c monthly_income_P721900 <-> 599
c age_P5600 <-> 600
c monthly_income_P547900 <-> 603
c age_P6100 <-> 604
c monthly_income_P634200 <-> 607
c age_P4500 <-> 608
c monthly_income_P346500 <-> 611
c pi_approved_0 <-> 614
c approved_P0 <-> 614
c monthly_income_P694800 <-> 615
c age_P2800 <-> 616
c monthly_income_P490900 <-> 619
c age_P7300 <-> 620
c monthly_income_P926500 <-> 623
c age_P5700 <-> 624
c monthly_income_P790300 <-> 627
c age_P4600 <-> 628
c monthly_income_P909500 <-> 631
c age_P4200 <-> 632
c monthly_income_P476600 <-> 635
c age_P4400 <-> 636
c monthly_income_P294300 <-> 639
c age_P7200 <-> 640
c monthly_income_P399100 <-> 643
c age_P5100 <-> 644
c monthly_income_P665900 <-> 647
c age_P3500 <-> 648
c monthly_income_P164800 <-> 651
c age_P2700 <-> 652
c pi_approved_1 <-> 654
c approved_P100 <-> 654
c monthly_income_P213700 <-> 655
c age_P3700 <-> 656
p cnf 656 1819
1 0
2 -3 0
2 -12 0
-2 12 3 0
-3 4 0
-3 58 0
3 -58 -4 0
-4 5 0
-4 208 0
4 -208 -5 0
5 -6 0
5 -37 0
-5 37 6 0
6 -7 0
6 -52 0
-6 52 7 0
7 -8 0
7 -65 0
-7 65 8 0
8 -9 0
8 -83 0
-8 83 9 0
9 -10 0
9 -54 0
-9 54 10 0
10 -11 0
10 -69 0
-10 69 11 0
11 -71 0
11 -75 0
-11 75 71 0
12 -13 0
12 -26 0
-12 26 13 0
-13 14 0
-13 78 0
13 -78 -14 0
-14 15 0
-14 208 0
14 -208 -15 0
15 -16 0
15 -33 0
-15 33 16 0
16 -17 0
16 -63 0
-16 63 17 0
17 -18 0
17 -35 0
-17 35 18 0
18 -19 0
18 -50 0
-18 50 19 0
19 -20 0
19 -39 0
-19 39 20 0
20 -21 0
20 -67 0
-20 67 21 0
21 -22 0
21 -41 0
-21 41 22 0
22 -23 0
22 -73 0
-22 73 23 0
23 -24 0
23 -42 0
-23 42 24 0
24 -25 0
24 -55 0
-24 55 25 0
25 -76 0
25 -84 0
-25 84 76 0
26 -27 0
26 -43 0
-26 43 27 0
-27 28 0
-27 31 0
27 -31 -28 0
-28 29 0
-28 30 0
28 -30 -29 0
29 145 0
29 -654 0
-29 654 -145 0
30 146 0
30 -614 0
-30 614 -146 0
-31 32 0
-31 209 0
31 -209 -32 0
32 -33 0
32 -34 0
-32 34 33 0
-33 579 0
-33 580 0
33 -580 -579 0
34 -35 0
34 -36 0
-34 36 35 0
-35 587 0
-35 588 0
35 -588 -587 0
36 -37 0
36 -38 0
-36 38 37 0
-37 591 0
-37 592 0
37 -592 -591 0
38 -39 0
38 -40 0
-38 40 39 0
-39 603 0
-39 604 0
39 -604 -603 0
40 -41 0
40 -42 0
-40 42 41 0
-41 619 0
-41 620 0
41 -620 -619 0
-42 639 0
-42 640 0
42 -640 -639 0
43 -44 0
43 -56 0
-43 56 44 0
-44 45 0
-44 48 0
44 -48 -45 0
-45 46 0
-45 47 0
45 -47 -46 0
46 151 0
46 -654 0
-46 654 -151 0
47 152 0
47 -614 0
-47 614 -152 0
-48 49 0
-48 209 0
48 -209 -49 0
49 -50 0
49 -51 0
-49 51 50 0
-50 595 0
-50 596 0
50 -596 -595 0
51 -52 0
51 -53 0
-51 53 52 0
-52 599 0
-52 600 0
52 -600 -599 0
53 -54 0
53 -55 0
-53 55 54 0
-54 623 0
-54 624 0
54 -624 -623 0
-55 643 0
-55 644 0
55 -644 -643 0
56 -57 0
56 -77 0
-56 77 57 0
-57 58 0
-57 61 0
57 -61 -58 0
-58 59 0
-58 60 0
58 -60 -59 0
59 153 0
59 -654 0
-59 654 -153 0
60 154 0
60 -614 0
-60 614 -154 0
-61 62 0
-61 209 0
61 -209 -62 0
62 -63 0
62 -64 0
-62 64 63 0
-63 583 0
-63 584 0
63 -584 -583 0
64 -65 0
64 -66 0
-64 66 65 0
-65 607 0
-65 608 0
65 -608 -607 0
66 -67 0
66 -68 0
-66 68 67 0
-67 611 0
-67 628 0
67 -628 -611 0
68 -69 0
68 -70 0
-68 70 69 0
-69 627 0
-69 628 0
69 -628 -627 0
70 -71 0
70 -72 0
-70 72 71 0
-71 631 0
-71 632 0
71 -632 -631 0
72 -73 0
72 -74 0
-72 74 73 0
-73 635 0
-73 636 0
73 -636 -635 0
74 -75 0
74 -76 0
-74 76 75 0
-75 647 0
-75 648 0
75 -648 -647 0
-76 655 0
-76 656 0
76 -656 -655 0
-77 78 0
-77 81 0
77 -81 -78 0
-78 79 0
-78 80 0
78 -80 -79 0
79 155 0
79 -654 0
-79 654 -155 0
80 156 0
80 -614 0
-80 614 -156 0
-81 82 0
-81 209 0
81 -209 -82 0
82 -83 0
82 -84 0
-82 84 83 0
-83 615 0
-83 616 0
83 -616 -615 0
-84 651 0
-84 652 0
84 -652 -651 0
85 -86 0
85 -88 0
-85 88 86 0
85 0
-86 87 0
-86 109 0
86 -109 -87 0
-87 5 0
-87 213 0
87 -213 -5 0
88 -89 0
88 -91 0
-88 91 89 0
-89 90 0
-89 116 0
89 -116 -90 0
-90 15 0
-90 213 0
90 -213 -15 0
91 -92 0
91 -99 0
-91 99 92 0
-92 93 0
-92 98 0
92 -98 -93 0
-93 94 0
-93 95 0
93 -95 -94 0
94 185 0
94 -654 0
-94 654 -185 0
-95 96 0
-95 97 0
95 -97 -96 0
96 186 0
96 -614 0
-96 614 -186 0
97 -2 0
97 187 0
-97 -187 2 0
-98 32 0
-98 214 0
98 -214 -32 0
99 -100 0
99 -107 0
-99 107 100 0
-100 101 0
-100 106 0
100 -106 -101 0
-101 102 0
-101 103 0
101 -103 -102 0
102 196 0
102 -654 0
-102 654 -196 0
-103 104 0
-103 105 0
103 -105 -104 0
104 197 0
104 -614 0
-104 614 -197 0
105 -2 0
105 198 0
-105 -198 2 0
-106 49 0
-106 214 0
106 -214 -49 0
107 -108 0
107 -115 0
-107 115 108 0
-108 109 0
-108 114 0
108 -114 -109 0
-109 110 0
-109 111 0
109 -111 -110 0
110 199 0
110 -654 0
-110 654 -199 0
-111 112 0
-111 113 0
111 -113 -112 0
112 200 0
112 -614 0
-112 614 -200 0
113 -2 0
113 201 0
-113 -201 2 0
-114 62 0
-114 214 0
114 -214 -62 0
-115 116 0
-115 121 0
115 -121 -116 0
-116 117 0
-116 118 0
116 -118 -117 0
117 202 0
117 -654 0
-117 654 -202 0
-118 119 0
-118 120 0
118 -120 -119 0
119 203 0
119 -614 0
-119 614 -203 0
120 -2 0
120 204 0
-120 -204 2 0
-121 82 0
-121 214 0
121 -214 -82 0
122 208 0
122 -123 0
-122 123 -208 0
122 0
-123 -145 0
-123 124 0
123 -124 145 0
-124 -146 0
-124 125 0
124 -125 146 0
-125 -151 0
-125 -152 0
125 152 151 0
126 213 0
126 -127 0
-126 127 -213 0
126 0
-127 -185 0
-127 128 0
127 -128 185 0
-128 -186 0
-128 129 0
128 -129 186 0
-129 -187 0
-129 130 0
129 -130 187 0
-130 -196 0
-130 131 0
130 -131 196 0
-131 -197 0
-131 -198 0
131 198 197 0
132 208 0
132 -133 0
-132 133 -208 0
132 0
-133 134 0
-133 137 0
133 -137 -134 0
134 -135 0
134 -136 0
-134 136 135 0
-135 -154 0
-135 153 0
135 -153 154 0
-136 -153 0
-136 154 0
136 -154 153 0
137 -138 0
137 -139 0
-137 139 138 0
-138 -156 0
-138 155 0
138 -155 156 0
-139 -155 0
-139 156 0
139 -156 155 0
140 209 0
140 -141 0
-140 141 -209 0
140 0
-141 142 0
-141 147 0
141 -147 -142 0
142 -143 0
142 -144 0
-142 144 143 0
-143 -146 0
-143 145 0
143 -145 146 0
-144 -145 0
-144 146 0
144 -146 145 0
-147 133 0
-147 148 0
147 -148 -133 0
148 -149 0
148 -150 0
-148 150 149 0
-149 -152 0
-149 151 0
149 -151 152 0
-150 -151 0
-150 152 0
150 -152 151 0
157 213 0
157 -158 0
-157 158 -213 0
157 0
-158 159 0
-158 167 0
158 -167 -159 0
159 -160 0
159 -165 0
-159 165 160 0
160 -161 0
160 -163 0
-160 163 161 0
-161 162 0
-161 199 0
161 -199 -162 0
-162 -200 0
-162 -201 0
162 201 200 0
-163 164 0
-163 200 0
163 -200 -164 0
-164 -199 0
-164 -201 0
164 201 199 0
-165 166 0
-165 201 0
165 -201 -166 0
-166 -199 0
-166 -200 0
166 200 199 0
167 -168 0
167 -173 0
-167 173 168 0
168 -169 0
168 -171 0
-168 171 169 0
-169 170 0
-169 202 0
169 -202 -170 0
-170 -203 0
-170 -204 0
170 204 203 0
-171 172 0
-171 203 0
171 -203 -172 0
-172 -202 0
-172 -204 0
172 204 202 0
-173 174 0
-173 204 0
173 -204 -174 0
-174 -202 0
-174 -203 0
174 203 202 0
175 214 0
175 -176 0
-175 176 -214 0
175 0
-176 177 0
-176 188 0
176 -188 -177 0
177 -178 0
177 -183 0
-177 183 178 0
178 -179 0
178 -181 0
-178 181 179 0
-179 180 0
-179 185 0
179 -185 -180 0
-180 -186 0
-180 -187 0
180 187 186 0
-181 182 0
-181 186 0
181 -186 -182 0
-182 -185 0
-182 -187 0
182 187 185 0
-183 184 0
-183 187 0
183 -187 -184 0
-184 -185 0
-184 -186 0
184 186 185 0
-188 158 0
-188 189 0
188 -189 -158 0
189 -190 0
189 -194 0
-189 194 190 0
190 -191 0
190 -192 0
-190 192 191 0
-191 131 0
-191 196 0
191 -196 -131 0
-192 193 0
-192 197 0
192 -197 -193 0
-193 -196 0
-193 -198 0
193 198 196 0
-194 195 0
-194 198 0
194 -198 -195 0
-195 -196 0
-195 -197 0
195 197 196 0
205 -206 0
205 -207 0
-205 207 206 0
205 0
-206 -209 0
-206 208 0
206 -208 209 0
-207 -208 0
-207 209 0
207 -209 208 0
210 -211 0
210 -212 0
-210 212 211 0
210 0
-211 -214 0
-211 213 0
211 -213 214 0
-212 -213 0
-212 214 0
212 -214 213 0
215 654 0
215 614 0
-215 -614 -654 0
215 0
216 583 0
216 579 0
-216 -579 -583 0
216 0
217 587 0
217 -218 0
-217 218 -587 0
217 0
-218 -583 0
-218 -579 0
218 579 583 0
219 591 0
219 -220 0
-219 220 -591 0
219 0
-220 -579 0
-220 221 0
220 -221 579 0
-221 -583 0
-221 -587 0
221 587 583 0
222 595 0
222 -223 0
-222 223 -595 0
222 0
-223 -579 0
-223 224 0
223 -224 579 0
-224 -583 0
-224 225 0
224 -225 583 0
-225 -587 0
-225 -591 0
225 591 587 0
226 599 0
226 -227 0
-226 227 -599 0
226 0
-227 -579 0
-227 228 0
227 -228 579 0
-228 -583 0
-228 229 0
228 -229 583 0
-229 -587 0
-229 230 0
229 -230 587 0
-230 -591 0
-230 -595 0
230 595 591 0
231 603 0
231 -232 0
-231 232 -603 0
231 0
-232 -579 0
-232 233 0
232 -233 579 0
-233 -583 0
-233 234 0
233 -234 583 0
-234 -587 0
-234 235 0
234 -235 587 0
-235 -591 0
-235 236 0
235 -236 591 0
-236 -595 0
-236 -599 0
236 599 595 0
237 607 0
237 -238 0
-237 238 -607 0
237 0
-238 -579 0
-238 239 0
238 -239 579 0
-239 -583 0
-239 240 0
239 -240 583 0
-240 -587 0
-240 241 0
240 -241 587 0
-241 -591 0
-241 242 0
241 -242 591 0
-242 -595 0
-242 243 0
242 -243 595 0
-243 -599 0
-243 -603 0
243 603 599 0
244 611 0
244 -245 0
-244 245 -611 0
244 0
-245 -579 0
-245 246 0
245 -246 579 0
-246 -583 0
-246 247 0
246 -247 583 0
-247 -587 0
-247 248 0
247 -248 587 0
-248 -591 0
-248 249 0
248 -249 591 0
-249 -595 0
-249 250 0
249 -250 595 0
-250 -599 0
-250 251 0
250 -251 599 0
-251 -603 0
-251 -607 0
251 607 603 0
252 615 0
252 -253 0
-252 253 -615 0
252 0
-253 -579 0
-253 254 0
253 -254 579 0
-254 -583 0
-254 255 0
254 -255 583 0
-255 -587 0
-255 256 0
255 -256 587 0
-256 -591 0
-256 257 0
256 -257 591 0
-257 -595 0
-257 258 0
257 -258 595 0
-258 -599 0
-258 259 0
258 -259 599 0
-259 -603 0
-259 260 0
259 -260 603 0
-260 -607 0
-260 -611 0
260 611 607 0
261 619 0
261 -262 0
-261 262 -619 0
261 0
-262 -579 0
-262 263 0
262 -263 579 0
-263 -583 0
-263 264 0
263 -264 583 0
-264 -587 0
-264 265 0
264 -265 587 0
-265 -591 0
-265 266 0
265 -266 591 0
-266 -595 0
-266 267 0
266 -267 595 0
-267 -599 0
-267 268 0
267 -268 599 0
-268 -603 0
-268 269 0
268 -269 603 0
-269 -607 0
-269 270 0
269 -270 607 0
-270 -611 0
-270 -615 0
270 615 611 0
271 623 0
271 -272 0
-271 272 -623 0
271 0
-272 -579 0
-272 273 0
272 -273 579 0
-273 -583 0
-273 274 0
273 -274 583 0
-274 -587 0
-274 275 0
274 -275 587 0
-275 -591 0
-275 276 0
275 -276 591 0
-276 -595 0
-276 277 0
276 -277 595 0
-277 -599 0
-277 278 0
277 -278 599 0
-278 -603 0
-278 279 0
278 -279 603 0
-279 -607 0
-279 280 0
279 -280 607 0
-280 -611 0
-280 281 0
280 -281 611 0
-281 -615 0
-281 -619 0
281 619 615 0
282 627 0
282 -283 0
-282 283 -627 0
282 0
-283 -579 0
-283 284 0
283 -284 579 0
-284 -583 0
-284 285 0
284 -285 583 0
-285 -587 0
-285 286 0
285 -286 587 0
-286 -591 0
-286 287 0
286 -287 591 0
-287 -595 0
-287 288 0
287 -288 595 0
-288 -599 0
-288 289 0
288 -289 599 0
-289 -603 0
-289 290 0
289 -290 603 0
-290 -607 0
-290 291 0
290 -291 607 0
-291 -611 0
-291 292 0
291 -292 611 0
-292 -615 0
-292 293 0
292 -293 615 0
-293 -619 0
-293 -623 0
293 623 619 0
294 631 0
294 -295 0
-294 295 -631 0
294 0
-295 -579 0
-295 296 0
295 -296 579 0
-296 -583 0
-296 297 0
296 -297 583 0
-297 -587 0
-297 298 0
297 -298 587 0
-298 -591 0
-298 299 0
298 -299 591 0
-299 -595 0
-299 300 0
299 -300 595 0
-300 -599 0
-300 301 0
300 -301 599 0
-301 -603 0
-301 302 0
301 -302 603 0
-302 -607 0
-302 303 0
302 -303 607 0
-303 -611 0
-303 304 0
303 -304 611 0
-304 -615 0
-304 305 0
304 -305 615 0
-305 -619 0
-305 306 0
305 -306 619 0
-306 -623 0
-306 -627 0
306 627 623 0
307 635 0
307 -308 0
-307 308 -635 0
307 0
-308 -579 0
-308 309 0
308 -309 579 0
-309 -583 0
-309 310 0
309 -310 583 0
-310 -587 0
-310 311 0
310 -311 587 0
-311 -591 0
-311 312 0
311 -312 591 0
-312 -595 0
-312 313 0
312 -313 595 0
-313 -599 0
-313 314 0
313 -314 599 0
-314 -603 0
-314 315 0
314 -315 603 0
-315 -607 0
-315 316 0
315 -316 607 0
-316 -611 0
-316 317 0
316 -317 611 0
-317 -615 0
-317 318 0
317 -318 615 0
-318 -619 0
-318 319 0
318 -319 619 0
-319 -623 0
-319 320 0
319 -320 623 0
-320 -627 0
-320 -631 0
320 631 627 0
321 639 0
321 -322 0
-321 322 -639 0
321 0
-322 -579 0
-322 323 0
322 -323 579 0
-323 -583 0
-323 324 0
323 -324 583 0
-324 -587 0
-324 325 0
324 -325 587 0
-325 -591 0
-325 326 0
325 -326 591 0
-326 -595 0
-326 327 0
326 -327 595 0
-327 -599 0
-327 328 0
327 -328 599 0
-328 -603 0
-328 329 0
328 -329 603 0
-329 -607 0
-329 330 0
329 -330 607 0
-330 -611 0
-330 331 0
330 -331 611 0
-331 -615 0
-331 332 0
331 -332 615 0
-332 -619 0
-332 333 0
332 -333 619 0
-333 -623 0
-333 334 0
333 -334 623 0
-334 -627 0
-334 335 0
334 -335 627 0
-335 -631 0
-335 -635 0
335 635 631 0
336 643 0
336 -337 0
-336 337 -643 0
336 0
-337 -579 0
-337 338 0
337 -338 579 0
-338 -583 0
-338 339 0
338 -339 583 0
-339 -587 0
-339 340 0
339 -340 587 0
-340 -591 0
-340 341 0
340 -341 591 0
-341 -595 0
-341 342 0
341 -342 595 0
-342 -599 0
-342 343 0
342 -343 599 0
-343 -603 0
-343 344 0
343 -344 603 0
-344 -607 0
-344 345 0
344 -345 607 0
-345 -611 0
-345 346 0
345 -346 611 0
-346 -615 0
-346 347 0
346 -347 615 0
-347 -619 0
-347 348 0
347 -348 619 0
-348 -623 0
-348 349 0
348 -349 623 0
-349 -627 0
-349 350 0
349 -350 627 0
-350 -631 0
-350 351 0
350 -351 631 0
-351 -635 0
-351 -639 0
351 639 635 0
352 647 0
352 -353 0
-352 353 -647 0
352 0
-353 -579 0
-353 354 0
353 -354 579 0
-354 -583 0
-354 355 0
354 -355 583 0
-355 -587 0
-355 356 0
355 -356 587 0
-356 -591 0
-356 357 0
356 -357 591 0
-357 -595 0
-357 358 0
357 -358 595 0
-358 -599 0
-358 359 0
358 -359 599 0
-359 -603 0
-359 360 0
359 -360 603 0
-360 -607 0
-360 361 0
360 -361 607 0
-361 -611 0
-361 362 0
361 -362 611 0
-362 -615 0
-362 363 0
362 -363 615 0
-363 -619 0
-363 364 0
363 -364 619 0
-364 -623 0
-364 365 0
364 -365 623 0
-365 -627 0
-365 366 0
365 -366 627 0
-366 -631 0
-366 367 0
366 -367 631 0
-367 -635 0
-367 368 0
367 -368 635 0
-368 -639 0
-368 -643 0
368 643 639 0
369 651 0
369 -370 0
-369 370 -651 0
369 0
-370 -579 0
-370 371 0
370 -371 579 0
-371 -583 0
-371 372 0
371 -372 583 0
-372 -587 0
-372 373 0
372 -373 587 0
-373 -591 0
-373 374 0
373 -374 591 0
-374 -595 0
-374 375 0
374 -375 595 0
-375 -599 0
-375 376 0
375 -376 599 0
-376 -603 0
-376 377 0
376 -377 603 0
-377 -607 0
-377 378 0
377 -378 607 0
-378 -611 0
-378 379 0
378 -379 611 0
-379 -615 0
-379 380 0
379 -380 615 0
-380 -619 0
-380 381 0
380 -381 619 0
-381 -623 0
-381 382 0
381 -382 623 0
-382 -627 0
-382 383 0
382 -383 627 0
-383 -631 0
-383 384 0
383 -384 631 0
-384 -635 0
-384 385 0
384 -385 635 0
-385 -639 0
-385 386 0
385 -386 639 0
-386 -643 0
-386 -647 0
386 647 643 0
387 655 0
387 -388 0
-387 388 -655 0
387 0
-388 -579 0
-388 389 0
388 -389 579 0
-389 -583 0
-389 390 0
389 -390 583 0
-390 -587 0
-390 391 0
390 -391 587 0
-391 -591 0
-391 392 0
391 -392 591 0
-392 -595 0
-392 393 0
392 -393 595 0
-393 -599 0
-393 394 0
393 -394 599 0
-394 -603 0
-394 395 0
394 -395 603 0
-395 -607 0
-395 396 0
395 -396 607 0
-396 -611 0
-396 397 0
396 -397 611 0
-397 -615 0
-397 398 0
397 -398 615 0
-398 -619 0
-398 399 0
398 -399 619 0
-399 -623 0
-399 400 0
399 -400 623 0
-400 -627 0
-400 401 0
400 -401 627 0
-401 -631 0
-401 402 0
401 -402 631 0
-402 -635 0
-402 403 0
402 -403 635 0
-403 -639 0
-403 404 0
403 -404 639 0
-404 -643 0
-404 405 0
404 -405 643 0
-405 -647 0
-405 -651 0
405 651 647 0
406 584 0
406 580 0
-406 -580 -584 0
406 0
407 588 0
407 -408 0
-407 408 -588 0
407 0
-408 -584 0
-408 -580 0
408 580 584 0
409 592 0
409 -410 0
-409 410 -592 0
409 0
-410 -580 0
-410 411 0
410 -411 580 0
-411 -584 0
-411 -588 0
411 588 584 0
412 596 0
412 -413 0
-412 413 -596 0
412 0
-413 -580 0
-413 414 0
413 -414 580 0
-414 -584 0
-414 415 0
414 -415 584 0
-415 -588 0
-415 -592 0
415 592 588 0
416 600 0
416 -417 0
-416 417 -600 0
416 0
-417 -580 0
-417 418 0
417 -418 580 0
-418 -584 0
-418 419 0
418 -419 584 0
-419 -588 0
-419 420 0
419 -420 588 0
-420 -592 0
-420 -596 0
420 596 592 0
421 604 0
421 -422 0
-421 422 -604 0
421 0
-422 -580 0
-422 423 0
422 -423 580 0
-423 -584 0
-423 424 0
423 -424 584 0
-424 -588 0
-424 425 0
424 -425 588 0
-425 -592 0
-425 426 0
425 -426 592 0
-426 -596 0
-426 -600 0
426 600 596 0
427 608 0
427 -428 0
-427 428 -608 0
427 0
-428 -580 0
-428 429 0
428 -429 580 0
-429 -584 0
-429 430 0
429 -430 584 0
-430 -588 0
-430 431 0
430 -431 588 0
-431 -592 0
-431 432 0
431 -432 592 0
-432 -596 0
-432 433 0
432 -433 596 0
-433 -600 0
-433 -604 0
433 604 600 0
434 616 0
434 -435 0
-434 435 -616 0
434 0
-435 -580 0
-435 436 0
435 -436 580 0
-436 -584 0
-436 437 0
436 -437 584 0
-437 -588 0
-437 438 0
437 -438 588 0
-438 -592 0
-438 439 0
438 -439 592 0
-439 -596 0
-439 440 0
439 -440 596 0
-440 -600 0
-440 441 0
440 -441 600 0
-441 -604 0
-441 -608 0
441 608 604 0
442 620 0
442 -443 0
-442 443 -620 0
442 0
-443 -580 0
-443 444 0
443 -444 580 0
-444 -584 0
-444 445 0
444 -445 584 0
-445 -588 0
-445 446 0
445 -446 588 0
-446 -592 0
-446 447 0
446 -447 592 0
-447 -596 0
-447 448 0
447 -448 596 0
-448 -600 0
-448 449 0
448 -449 600 0
-449 -604 0
-449 450 0
449 -450 604 0
-450 -608 0
-450 -616 0
450 616 608 0
451 624 0
451 -452 0
-451 452 -624 0
451 0
-452 -580 0
-452 453 0
452 -453 580 0
-453 -584 0
-453 454 0
453 -454 584 0
-454 -588 0
-454 455 0
454 -455 588 0
-455 -592 0
-455 456 0
455 -456 592 0
-456 -596 0
-456 457 0
456 -457 596 0
-457 -600 0
-457 458 0
457 -458 600 0
-458 -604 0
-458 459 0
458 -459 604 0
-459 -608 0
-459 460 0
459 -460 608 0
-460 -616 0
-460 -620 0
460 620 616 0
461 628 0
461 -462 0
-461 462 -628 0
461 0
-462 -580 0
-462 463 0
462 -463 580 0
-463 -584 0
-463 464 0
463 -464 584 0
-464 -588 0
-464 465 0
464 -465 588 0
-465 -592 0
-465 466 0
465 -466 592 0
-466 -596 0
-466 467 0
466 -467 596 0
-467 -600 0
-467 468 0
467 -468 600 0
-468 -604 0
-468 469 0
468 -469 604 0
-469 -608 0
-469 470 0
469 -470 608 0
-470 -616 0
-470 471 0
470 -471 616 0
-471 -620 0
-471 -624 0
471 624 620 0
472 632 0
472 -473 0
-472 473 -632 0
472 0
-473 -580 0
-473 474 0
473 -474 580 0
-474 -584 0
-474 475 0
474 -475 584 0
-475 -588 0
-475 476 0
475 -476 588 0
-476 -592 0
-476 477 0
476 -477 592 0
-477 -596 0
-477 478 0
477 -478 596 0
-478 -600 0
-478 479 0
478 -479 600 0
-479 -604 0
-479 480 0
479 -480 604 0
-480 -608 0
-480 481 0
480 -481 608 0
-481 -616 0
-481 482 0
481 -482 616 0
-482 -620 0
-482 483 0
482 -483 620 0
-483 -624 0
-483 -628 0
483 628 624 0
484 636 0
484 -485 0
-484 485 -636 0
484 0
-485 -580 0
-485 486 0
485 -486 580 0
-486 -584 0
-486 487 0
486 -487 584 0
-487 -588 0
-487 488 0
487 -488 588 0
-488 -592 0
-488 489 0
488 -489 592 0
-489 -596 0
-489 490 0
489 -490 596 0
-490 -600 0
-490 491 0
490 -491 600 0
-491 -604 0
-491 492 0
491 -492 604 0
-492 -608 0
-492 493 0
492 -493 608 0
-493 -616 0
-493 494 0
493 -494 616 0
-494 -620 0
-494 495 0
494 -495 620 0
-495 -624 0
-495 496 0
495 -496 624 0
-496 -628 0
-496 -632 0
496 632 628 0
497 640 0
497 -498 0
-497 498 -640 0
497 0
-498 -580 0
-498 499 0
498 -499 580 0
-499 -584 0
-499 500 0
499 -500 584 0
-500 -588 0
-500 501 0
500 -501 588 0
-501 -592 0
-501 502 0
501 -502 592 0
-502 -596 0
-502 503 0
502 -503 596 0
-503 -600 0
-503 504 0
503 -504 600 0
-504 -604 0
-504 505 0
504 -505 604 0
-505 -608 0
-505 506 0
505 -506 608 0
-506 -616 0
-506 507 0
506 -507 616 0
-507 -620 0
-507 508 0
507 -508 620 0
-508 -624 0
-508 509 0
508 -509 624 0
-509 -628 0
-509 510 0
509 -510 628 0
-510 -632 0
-510 -636 0
510 636 632 0
511 644 0
511 -512 0
-511 512 -644 0
511 0
-512 -580 0
-512 513 0
512 -513 580 0
-513 -584 0
-513 514 0
513 -514 584 0
-514 -588 0
-514 515 0
514 -515 588 0
-515 -592 0
-515 516 0
515 -516 592 0
-516 -596 0
-516 517 0
516 -517 596 0
-517 -600 0
-517 518 0
517 -518 600 0
-518 -604 0
-518 519 0
518 -519 604 0
-519 -608 0
-519 520 0
519 -520 608 0
-520 -616 0
-520 521 0
520 -521 616 0
-521 -620 0
-521 522 0
521 -522 620 0
-522 -624 0
-522 523 0
522 -523 624 0
-523 -628 0
-523 524 0
523 -524 628 0
-524 -632 0
-524 525 0
524 -525 632 0
-525 -636 0
-525 -640 0
525 640 636 0
526 648 0
526 -527 0
-526 527 -648 0
526 0
-527 -580 0
-527 528 0
527 -528 580 0
-528 -584 0
-528 529 0
528 -529 584 0
-529 -588 0
-529 530 0
529 -530 588 0
-530 -592 0
-530 531 0
530 -531 592 0
-531 -596 0
-531 532 0
531 -532 596 0
-532 -600 0
-532 533 0
532 -533 600 0
-533 -604 0
-533 534 0
533 -534 604 0
-534 -608 0
-534 535 0
534 -535 608 0
-535 -616 0
-535 536 0
535 -536 616 0
-536 -620 0
-536 537 0
536 -537 620 0
-537 -624 0
-537 538 0
537 -538 624 0
-538 -628 0
-538 539 0
538 -539 628 0
-539 -632 0
-539 540 0
539 -540 632 0
-540 -636 0
-540 541 0
540 -541 636 0
-541 -640 0
-541 -644 0
541 644 640 0
542 652 0
542 -543 0
-542 543 -652 0
542 0
-543 -580 0
-543 544 0
543 -544 580 0
-544 -584 0
-544 545 0
544 -545 584 0
-545 -588 0
-545 546 0
545 -546 588 0
-546 -592 0
-546 547 0
546 -547 592 0
-547 -596 0
-547 548 0
547 -548 596 0
-548 -600 0
-548 549 0
548 -549 600 0
-549 -604 0
-549 550 0
549 -550 604 0
-550 -608 0
-550 551 0
550 -551 608 0
-551 -616 0
-551 552 0
551 -552 616 0
-552 -620 0
-552 553 0
552 -553 620 0
-553 -624 0
-553 554 0
553 -554 624 0
-554 -628 0
-554 555 0
554 -555 628 0
-555 -632 0
-555 556 0
555 -556 632 0
-556 -636 0
-556 557 0
556 -557 636 0
-557 -640 0
-557 558 0
557 -558 640 0
-558 -644 0
-558 -648 0
558 648 644 0
559 656 0
559 -560 0
-559 560 -656 0
559 0
-560 -580 0
-560 561 0
560 -561 580 0
-561 -584 0
-561 562 0
561 -562 584 0
-562 -588 0
-562 563 0
562 -563 588 0
-563 -592 0
-563 564 0
563 -564 592 0
-564 -596 0
-564 565 0
564 -565 596 0
-565 -600 0
-565 566 0
565 -566 600 0
-566 -604 0
-566 567 0
566 -567 604 0
-567 -608 0
-567 568 0
567 -568 608 0
-568 -616 0
-568 569 0
568 -569 616 0
-569 -620 0
-569 570 0
569 -570 620 0
-570 -624 0
-570 571 0
570 -571 624 0
-571 -628 0
-571 572 0
571 -572 628 0
-572 -632 0
-572 573 0
572 -573 632 0
-573 -636 0
-573 574 0
573 -574 636 0
-574 -640 0
-574 575 0
574 -575 640 0
-575 -644 0
-575 576 0
575 -576 644 0
-576 -648 0
-576 -652 0
576 652 648 0
577 -578 0
577 -581 0
-577 581 578 0
577 0
-578 33 0
-578 654 0
578 -654 -33 0
581 -582 0
581 -585 0
-581 585 582 0
-582 63 0
-582 654 0
582 -654 -63 0
585 -586 0
585 -589 0
-585 589 586 0
-586 35 0
-586 654 0
586 -654 -35 0
589 -590 0
589 -593 0
-589 593 590 0
-590 37 0
-590 654 0
590 -654 -37 0
593 -594 0
593 -597 0
-593 597 594 0
-594 50 0
-594 654 0
594 -654 -50 0
597 -598 0
597 -601 0
-597 601 598 0
-598 52 0
-598 654 0
598 -654 -52 0
601 -602 0
601 -605 0
-601 605 602 0
-602 39 0
-602 654 0
602 -654 -39 0
605 -606 0
605 -609 0
-605 609 606 0
-606 65 0
-606 654 0
606 -654 -65 0
609 -610 0
609 -612 0
-609 612 610 0
-610 67 0
-610 654 0
610 -654 -67 0
612 -613 0
612 -617 0
-612 617 613 0
-613 83 0
-613 614 0
613 -614 -83 0
617 -618 0
617 -621 0
-617 621 618 0
-618 41 0
-618 654 0
618 -654 -41 0
621 -622 0
621 -625 0
-621 625 622 0
-622 54 0
-622 654 0
622 -654 -54 0
625 -626 0
625 -629 0
-625 629 626 0
-626 69 0
-626 654 0
626 -654 -69 0
629 -630 0
629 -633 0
-629 633 630 0
-630 71 0
-630 654 0
630 -654 -71 0
633 -634 0
633 -637 0
-633 637 634 0
-634 73 0
-634 654 0
634 -654 -73 0
637 -638 0
637 -641 0
-637 641 638 0
-638 42 0
-638 654 0
638 -654 -42 0
641 -642 0
641 -645 0
-641 645 642 0
-642 55 0
-642 654 0
642 -654 -55 0
645 -646 0
645 -649 0
-645 649 646 0
-646 75 0
-646 654 0
646 -654 -75 0
649 -650 0
649 -653 0
-649 653 650 0
-650 84 0
-650 654 0
650 -654 -84 0
-653 76 0
-653 654 0
653 -654 -76 0
